Set parameter TSPort to value 51199
Set parameter TokenServer to value "open-license1.lanl.gov"
Set parameter TimeLimit to value 256
Set parameter Threads to value 1
Gurobi Optimizer version 10.0.3 build v10.0.3rc0 (linux64)

CPU model: Intel(R) Xeon(R) CPU E5-2695 v4 @ 2.10GHz, instruction set [SSE2|AVX|AVX2]
Thread count: 36 physical cores, 72 logical processors, using up to 1 threads

Optimize a model with 0 rows, 597 columns and 0 nonzeros
Model fingerprint: 0x8cbcd859
Model has 2566 quadratic objective terms
Variable types: 0 continuous, 597 integer (597 binary)
Coefficient statistics:
  Matrix range     [0e+00, 0e+00]
  Objective range  [2e+00, 3e+01]
  QObjective range [8e+00, 8e+00]
  Bounds range     [1e+00, 1e+00]
  RHS range        [0e+00, 0e+00]
Found heuristic solution: objective 0.0000000
Found heuristic solution: objective -1052.000000
Found heuristic solution: objective -3602.000000
Found heuristic solution: objective -3618.000000
Presolve removed 0 rows and 2 columns
Presolve time: 0.23s
Presolved: 2564 rows, 3159 columns, 7692 nonzeros
Variable types: 0 continuous, 3159 integer (3159 binary)

Root relaxation: objective -4.926000e+03, 758 iterations, 0.02 seconds (0.01 work units)

    Nodes    |    Current Node    |     Objective Bounds      |     Work
 Expl Unexpl |  Obj  Depth IntInf | Incumbent    BestBd   Gap | It/Node Time

     0     0 -4926.0000    0  595 -3618.0000 -4926.0000  36.2%     -    0s
     0     0 -4484.8333    0  837 -3618.0000 -4484.8333  24.0%     -    0s
     0     0 -4482.1667    0  845 -3618.0000 -4482.1667  23.9%     -    0s
     0     0 -4380.9167    0  925 -3618.0000 -4380.9167  21.1%     -    0s
     0     0 -4380.9167    0  921 -3618.0000 -4380.9167  21.1%     -    1s
     0     2 -4380.4167    0  915 -3618.0000 -4380.4167  21.1%     -    1s
   513   492 -3873.5000   79  595 -3618.0000 -4368.1667  20.7%  81.5    5s
   533   506 -3917.5000   68 1869 -3618.0000 -4042.3346  11.7%  78.4   10s
   547   515 -3790.5000   93 2172 -3618.0000 -3988.8143  10.2%  76.4   15s
   557   522 -3946.5000   65 2328 -3618.0000 -3955.2292  9.32%  75.1   21s
   566   528 -3946.6860   15 2534 -3618.0000 -3946.6860  9.08%  73.9   25s
   568   529 -3894.5000   75 2612 -3618.0000 -3922.0682  8.40%  73.6   31s
   575   534 -3631.0000  140 2665 -3618.0000 -3907.9580  8.01%  72.7   36s
   581   538 -3904.1258   60 2737 -3618.0000 -3904.1258  7.91%  72.0   40s
   585   540 -3633.0000  139 2737 -3618.0000 -3894.3473  7.64%  71.5   45s
   596   548 -3817.5000   87 2728 -3618.0000 -3884.2242  7.36%  70.1   51s
   603   552 -3879.5445   16 2761 -3618.0000 -3879.5445  7.23%  69.3   55s
   616   561 -3781.0000   95 2812 -3618.0000 -3875.2636  7.11%  67.9   60s
   626   568 -3750.5000  105 2821 -3618.0000 -3869.5820  6.95%  66.8   65s
   637   575 -3761.5000  102 2816 -3618.0000 -3865.1566  6.83%  65.6   70s
   656   588 -3859.8842   50 2825 -3618.0000 -3859.8842  6.69%  63.7   75s
   671   598 -3665.0000  129 2858 -3618.0000 -3857.1249  6.61%  62.3   80s
   689   610 -3854.2593   44 2880 -3618.0000 -3854.2593  6.53%  60.7   85s
   704   620 -3850.7198   29 2895 -3618.0000 -3850.7198  6.43%  59.4   90s
   724   633 -3801.0000   90 2901 -3618.0000 -3848.2417  6.36%  57.7   95s
   737   643 -3761.5000  102 2603 -3618.0000 -3848.2358  6.36%   327  104s
   738   643 -3848.2358   66 2758 -3618.0000 -3848.2358  6.36%   326  110s
   741   645 -3848.2358    8 2878 -3618.0000 -3848.2358  6.36%   325  115s
   756   655 -3845.3681   50 2884 -3618.0000 -3845.3681  6.28%   319  120s
   767   663 -3842.3335   80 2909 -3618.0000 -3842.3335  6.20%   314  125s
   782   673 -3838.5000   87 2933 -3618.0000 -3840.3128  6.14%   308  130s
   798   683 -3838.7636   45 2945 -3618.0000 -3838.7636  6.10%   302  135s
   811   692 -3714.0000  113 2946 -3618.0000 -3836.9442  6.05%   297  140s
   828   703 -3835.9844   69 2964 -3618.0000 -3835.9844  6.02%   291  145s
   849   717 -3633.0000  139 2942 -3618.0000 -3834.3234  5.98%   284  150s
   871   732 -3665.0000  129 2964 -3618.0000 -3833.0116  5.94%   277  155s
   891   745 -3831.3003   40 2938 -3618.0000 -3831.3003  5.90%   270  160s
   912   759 -3707.0000  117 2956 -3618.0000 -3830.0375  5.86%   264  165s
   935   775 -3829.0849   56 2962 -3618.0000 -3829.0849  5.83%   258  170s
   957   789 -3828.1506   65 2967 -3618.0000 -3828.1506  5.81%   252  175s
   980   805 -3827.5545   27 2972 -3618.0000 -3827.5545  5.79%   246  180s
   983   807 -3791.0000   93 2954 -3618.0000 -3827.5540  5.79%   245  186s
   985   810 -3825.2880   23 2932 -3618.0000 -3825.2880  5.73%   397  190s
   988   812 -3821.3878   25 2819 -3618.0000 -3825.2880  5.73%   406  195s
   992   815 -3818.6322   27 2810 -3618.0000 -3825.2880  5.73%   417  201s
   995   817 -3815.8944   28 2783 -3618.0000 -3825.2880  5.73%   429  206s
   998   819 -3810.6195   30 2719 -3618.0000 -3825.2880  5.73%   438  211s
  1000   820 -3809.3907   31 2717 -3618.0000 -3825.2880  5.73%   442  216s
  1003   822 -3806.1785   32 2683 -3618.0000 -3825.2880  5.73%   451  220s
  1007   825 -3801.9227   34 2634 -3618.0000 -3825.2880  5.73%   461  225s
  1011   827 -3798.4414   36 2608 -3618.0000 -3825.2880  5.73%   470  230s
  1017   831 -3790.2816   39 2557 -3618.0000 -3825.2880  5.73%   482  236s
  1021   834 -3787.5396   41 2533 -3618.0000 -3825.2880  5.73%   490  240s
  1027   838 -3783.0269   44 2498 -3618.0000 -3825.2880  5.73%   498  245s
  1034   843 -3773.5426   48 2458 -3618.0000 -3825.2880  5.73%   509  250s
  1039   846 -3769.1071   50 2417 -3618.0000 -3825.2880  5.73%   518  255s

Cutting planes:
  Gomory: 24
  MIR: 116
  Flow cover: 1208
  Zero half: 401
  RLT: 104
  BQP: 156

Explored 1041 nodes (545266 simplex iterations) in 256.00 seconds (294.90 work units)
Thread count was 1 (of 72 available processors)

Solution count 4: -3618 -3602 -1052 0 

Time limit reached
Best objective -3.618000000000e+03, best bound -3.824000000000e+03, gap 5.6938%

User-callback calls 21471, time in user-callback 0.10 sec

BQP_SOLUTION, 597, 2566, -1258.000000, 256.001968, -1, 1, -1, 1, 1, -1, 1, -1, 1, 1, -1, 1, -1, -1, 1, 1, -1, -1, 1, 1, 1, 1, -1, 1, 1, -1, 1, -1, 1, 1, -1, 1, -1, -1, 1, -1, 1, -1, -1, 1, -1, -1, 1, -1, 1, -1, 1, -1, -1, 1, -1, -1, -1, -1, -1, 1, -1, -1, 1, 1, -1, -1, -1, 1, -1, -1, -1, -1, -1, 1, 1, -1, 1, 1, 1, -1, -1, -1, 1, -1, 1, -1, 1, -1, -1, -1, -1, -1, 1, -1, 1, -1, 1, 1, 1, 1, 1, 1, 1, 1, 1, -1, -1, -1, 1, -1, 1, -1, 1, 1, 1, -1, 1, 1, 1, 1, -1, 1, 1, 1, 1, -1, 1, 1, 1, -1, 1, 1, 1, 1, -1, 1, -1, 1, 1, -1, 1, -1, 1, 1, -1, -1, -1, 1, 1, 1, 1, 1, -1, 1, -1, -1, -1, 1, 1, 1, -1, 1, -1, 1, -1, 1, -1, 1, 1, 1, -1, -1, 1, -1, 1, -1, 1, 1, 1, 1, -1, -1, 1, 1, -1, -1, -1, 1, 1, -1, -1, 1, -1, 1, -1, -1, 1, -1, 1, -1, 1, -1, 1, 1, 1, -1, 1, 1, 1, -1, 1, 1, -1, 1, -1, 1, 1, 1, 1, 1, -1, 1, -1, 1, 1, -1, 1, 1, 1, -1, -1, 1, 1, 1, 1, -1, 1, 1, 1, -1, 1, 1, 1, -1, 1, 1, 1, 1, 1, 1, 1, 1, 1, -1, 1, 1, 1, 1, -1, -1, 1, 1, 1, -1, -1, 1, 1, 1, 1, -1, 1, 1, 1, -1, 1, 1, 1, 1, -1, -1, 1, 1, 1, -1, -1, 1, 1, -1, 1, -1, 1, 1, -1, -1, 1, 1, 1, 1, -1, -1, 1, 1, 1, -1, 1, -1, -1, 1, 1, 1, 1, 1, 1, -1, 1, -1, 1, 1, -1, 1, -1, 1, -1, 1, -1, -1, 1, -1, 1, -1, -1, 1, -1, 1, -1, 1, -1, 1, -1, 1, -1, 1, 1, -1, -1, -1, 1, -1, 1, -1, -1, -1, 1, 1, -1, -1, 1, -1, 1, -1, -1, 1, 1, -1, -1, 1, 1, -1, -1, 1, 1, 1, -1, 1, -1, 1, 1, -1, -1, 1, 1, 1, 1, 1, 1, 1, 1, 1, -1, 1, 1, -1, 1, 1, 1, 1, 1, 1, 1, -1, 1, -1, 1, 1, 1, 1, -1, 1, -1, 1, 1, 1, 1, 1, 1, 1, 1, 1, -1, 1, 1, 1, -1, 1, 1, 1, 1, -1, 1, 1, -1, 1, -1, 1, -1, 1, 1, -1, 1, 1, -1, 1, -1, 1, 1, -1, 1, -1, 1, -1, 1, 1, -1, 1, -1, -1, 1, 1, 1, -1, 1, 1, -1, 1, -1, -1, 1, 1, 1, -1, 1, -1, 1, -1, 1, -1, 1, 1, 1, -1, -1, 1, -1, 1, -1, 1, -1, -1, 1, -1, -1, 1, -1, 1, -1, -1, 1, -1, 1, -1, -1, 1, -1, -1, -1, -1, 1, -1, 1, -1, -1, 1, -1, 1, -1, -1, -1, -1, -1, 1, -1, 1, -1, 1, -1, -1, -1, -1, -1, -1, -1, 1, -1, -1, 1, -1, -1, 1, 1, -1, -1, 1, -1, -1, -1, -1, -1, -1, 1, -1, -1, 1, -1, -1, -1, 1, -1, -1, 1, -1, 1, -1, -1, -1, 1, -1, -1, -1, -1, -1, -1, -1, 1, -1, 1, -1, -1, 1, -1, 1, -1, -1, 1, -1, 1, -1, -1, -1, -1, 1, -1, -1, 1, 1, -1, -1, -1, 1, -1, 1, -1
BQP_DATA, 597, 2566, -1258.000000, -1464.000000, -3618.000000, -3824.000000, 256.001968, 1749, 1041
